Set parameter TokenServer to value "hpc-licenses.hpcc.usc.edu"
Set parameter TimeLimit to value 3600
Gurobi Optimizer version 9.5.1 build v9.5.1rc2 (linux64)
Thread count: 20 physical cores, 20 logical processors, using up to 20 threads
Optimize a model with 14014 rows, 10581 columns and 61098 nonzeros
Model fingerprint: 0xa9c4a0ae
Variable types: 10514 continuous, 67 integer (67 binary)
Coefficient statistics:
  Matrix range     [1e+00, 1e+00]
  Objective range  [5e-03, 2e+00]
  Bounds range     [1e+00, 1e+00]
  RHS range        [1e+00, 1e+00]
Presolve removed 3062 rows and 3049 columns
Presolve time: 0.22s
Presolved: 10952 rows, 7532 columns, 56363 nonzeros
Variable types: 7472 continuous, 60 integer (60 binary)
Found heuristic solution: objective 297.1285505

Root relaxation: objective 3.026150e+02, 2963 iterations, 0.16 seconds (0.17 work units)

    Nodes    |    Current Node    |     Objective Bounds      |     Work
 Expl Unexpl |  Obj  Depth IntInf | Incumbent    BestBd   Gap | It/Node Time

     0     0  302.61502    0    6  297.12855  302.61502  1.85%     -    0s
H    0     0                     297.6370446  302.61502  1.67%     -    0s
     0     0  302.59718    0    6  297.63704  302.59718  1.67%     -    0s
     0     0  302.59231    0    6  297.63704  302.59231  1.66%     -    0s
H    0     0                     298.5535546  302.50770  1.32%     -    0s
     0     0  302.46555    0   17  298.55355  302.46555  1.31%     -    1s
     0     0  302.46419    0   22  298.55355  302.46419  1.31%     -    1s
     0     0  302.45007    0   21  298.55355  302.45007  1.31%     -    1s
     0     0  302.45007    0   19  298.55355  302.45007  1.31%     -    1s
H    0     0                     300.0987892  302.43263  0.78%     -    1s
     0     0  302.42767    0   22  300.09879  302.42767  0.78%     -    1s
     0     0  302.42767    0   22  300.09879  302.42767  0.78%     -    1s
     0     0  302.40989    0   19  300.09879  302.40989  0.77%     -    2s
     0     0  302.38116    0   23  300.09879  302.38116  0.76%     -    2s
     0     0  302.30470    0   21  300.09879  302.30470  0.74%     -    2s
     0     0  302.29839    0   21  300.09879  302.29839  0.73%     -    2s
     0     2  302.29839    0   21  300.09879  302.29839  0.73%     -    3s
    19    13  302.29839    5   12  300.09879  302.29839  0.73%   470    5s
H   34    16                     300.1989295  302.29839  0.70%   400    5s
   214    38  302.16415   14    6  300.19893  302.29839  0.70%   185   10s
   710    33  301.65494   13    4  300.19893  301.93703  0.58%   138   15s

Cutting planes:
  Gomory: 4
  MIR: 73
  Flow cover: 10
  RLT: 18
  Relax-and-lift: 10

Explored 1055 nodes (136684 simplex iterations) in 18.54 seconds (4.91 work units)
Thread count was 20 (of 20 available processors)

Solution count 5: 300.199 300.099 298.554 ... 297.129

Optimal solution found (tolerance 1.00e-04)
Best objective 3.001989294563e+02, best bound 3.001989294563e+02, gap 0.0000%



#########node  1
V2.3
#########node  2
V1.8
#########node  3
V1.6
#########node  4
0.0,1.0
#########node  5
1.0,0.0
#########node  6
0.0,1.0
#########node  7
1.0,0.0


Total Solving Time 19.494539499282837
obj value 300.19892945625645
Policy Regret train (Sum) 0.5577530287739486
Best Treatment Found train (%) 90.8
treatment classification acc train (%) 74.2
Policy Regret test (Sum) 77.68256944146073
Best Treatment Found test (%) 68.42
treatment classification acc test (%) 71.78
Set parameter TokenServer to value "hpc-licenses.hpcc.usc.edu"
Set parameter TimeLimit to value 3600
Gurobi Optimizer version 9.5.1 build v9.5.1rc2 (linux64)
Thread count: 20 physical cores, 20 logical processors, using up to 20 threads
Optimize a model with 14014 rows, 10581 columns and 61098 nonzeros
Model fingerprint: 0xa9c4a0ae
Variable types: 10514 continuous, 67 integer (67 binary)
Coefficient statistics:
  Matrix range     [1e+00, 1e+00]
  Objective range  [5e-03, 2e+00]
  Bounds range     [1e+00, 1e+00]
  RHS range        [1e+00, 1e+00]
Presolve removed 3062 rows and 3049 columns
Presolve time: 0.22s
Presolved: 10952 rows, 7532 columns, 56363 nonzeros
Variable types: 7472 continuous, 60 integer (60 binary)
Found heuristic solution: objective 297.1285505

Root relaxation: objective 3.026150e+02, 2963 iterations, 0.16 seconds (0.17 work units)

    Nodes    |    Current Node    |     Objective Bounds      |     Work
 Expl Unexpl |  Obj  Depth IntInf | Incumbent    BestBd   Gap | It/Node Time

     0     0  302.61502    0    6  297.12855  302.61502  1.85%     -    0s
H    0     0                     297.6370446  302.61502  1.67%     -    0s
     0     0  302.59718    0    6  297.63704  302.59718  1.67%     -    0s
     0     0  302.59231    0    6  297.63704  302.59231  1.66%     -    0s
H    0     0                     298.5535546  302.50770  1.32%     -    0s
     0     0  302.46555    0   17  298.55355  302.46555  1.31%     -    1s
     0     0  302.46419    0   22  298.55355  302.46419  1.31%     -    1s
     0     0  302.45007    0   21  298.55355  302.45007  1.31%     -    1s
     0     0  302.45007    0   19  298.55355  302.45007  1.31%     -    1s
H    0     0                     300.0987892  302.43263  0.78%     -    1s
     0     0  302.42767    0   22  300.09879  302.42767  0.78%     -    1s
     0     0  302.42767    0   22  300.09879  302.42767  0.78%     -    1s
     0     0  302.40989    0   19  300.09879  302.40989  0.77%     -    2s
     0     0  302.38116    0   23  300.09879  302.38116  0.76%     -    2s
     0     0  302.30470    0   21  300.09879  302.30470  0.74%     -    2s
     0     0  302.29839    0   21  300.09879  302.29839  0.73%     -    2s
     0     2  302.29839    0   21  300.09879  302.29839  0.73%     -    3s
    13    10  302.29839    4   13  300.09879  302.29839  0.73%   510    5s
H   34    16                     300.1989295  302.29839  0.70%   400    6s
   255    39  302.16415   15    6  300.19893  302.29839  0.70%   166   10s
   742    27  301.12432   14    4  300.19893  301.92025  0.57%   138   15s

Cutting planes:
  Gomory: 4
  MIR: 73
  Flow cover: 10
  RLT: 18
  Relax-and-lift: 10

Explored 1055 nodes (136684 simplex iterations) in 18.74 seconds (4.91 work units)
Thread count was 20 (of 20 available processors)

Solution count 5: 300.199 300.099 298.554 ... 297.129

Optimal solution found (tolerance 1.00e-04)
Best objective 3.001989294563e+02, best bound 3.001989294563e+02, gap 0.0000%



#########node  1
V2.3
#########node  2
V1.8
#########node  3
V1.6
#########node  4
0.0,1.0
#########node  5
1.0,0.0
#########node  6
0.0,1.0
#########node  7
1.0,0.0


Total Solving Time 19.64982271194458
obj value 300.19892945625645
Policy Regret train (Sum) 0.5577530287739486
Best Treatment Found train (%) 90.8
treatment classification acc train (%) 74.2
Policy Regret test (Sum) 77.68256944146073
Best Treatment Found test (%) 68.42
treatment classification acc test (%) 71.78
